NAME :
TYPE : CCVRP
COMMENT :
DIMENSION : 324
CAPACITY : 1000
EDGE_WEIGHT_TYPE : EUC_2D_DBL
NODE_COORD_TYPE: TWOD_COORD
NODE_COORD_SECTION
1 0.0000 -17.0000
2 -1.0000 -16.0000
3 1.0000 -16.0000
4 -2.0000 -15.0000
5 0.0000 -15.0000
6 2.0000 -15.0000
7 -3.0000 -14.0000
8 -1.0000 -14.0000
9 1.0000 -14.0000
10 3.0000 -14.0000
11 -4.0000 -13.0000
12 -2.0000 -13.0000
13 0.0000 -13.0000
14 2.0000 -13.0000
15 4.0000 -13.0000
16 -5.0000 -12.0000
17 -3.0000 -12.0000
18 -1.0000 -12.0000
19 1.0000 -12.0000
20 3.0000 -12.0000
21 5.0000 -12.0000
22 -6.0000 -11.0000
23 -4.0000 -11.0000
24 -2.0000 -11.0000
25 0.0000 -11.0000
26 2.0000 -11.0000
27 4.0000 -11.0000
28 6.0000 -11.0000
29 -7.0000 -10.0000
30 -5.0000 -10.0000
31 -3.0000 -10.0000
32 -1.0000 -10.0000
33 1.0000 -10.0000
34 3.0000 -10.0000
35 5.0000 -10.0000
36 7.0000 -10.0000
37 -8.0000 -9.0000
38 -6.0000 -9.0000
39 -4.0000 -9.0000
40 -2.0000 -9.0000
41 0.0000 -9.0000
42 2.0000 -9.0000
43 4.0000 -9.0000
44 6.0000 -9.0000
45 8.0000 -9.0000
46 -9.0000 -8.0000
47 -7.0000 -8.0000
48 -5.0000 -8.0000
49 -3.0000 -8.0000
50 -1.0000 -8.0000
51 1.0000 -8.0000
52 3.0000 -8.0000
53 5.0000 -8.0000
54 7.0000 -8.0000
55 9.0000 -8.0000
56 -10.0000 -7.0000
57 -8.0000 -7.0000
58 -6.0000 -7.0000
59 -4.0000 -7.0000
60 -2.0000 -7.0000
61 0.0000 -7.0000
62 2.0000 -7.0000
63 4.0000 -7.0000
64 6.0000 -7.0000
65 8.0000 -7.0000
66 10.0000 -7.0000
67 -11.0000 -6.0000
68 -9.0000 -6.0000
69 -7.0000 -6.0000
70 -5.0000 -6.0000
71 -3.0000 -6.0000
72 -1.0000 -6.0000
73 1.0000 -6.0000
74 3.0000 -6.0000
75 5.0000 -6.0000
76 7.0000 -6.0000
77 9.0000 -6.0000
78 11.0000 -6.0000
79 -12.0000 -5.0000
80 -10.0000 -5.0000
81 -8.0000 -5.0000
82 -6.0000 -5.0000
83 -4.0000 -5.0000
84 -2.0000 -5.0000
85 0.0000 -5.0000
86 2.0000 -5.0000
87 4.0000 -5.0000
88 6.0000 -5.0000
89 8.0000 -5.0000
90 10.0000 -5.0000
91 12.0000 -5.0000
92 -13.0000 -4.0000
93 -11.0000 -4.0000
94 -9.0000 -4.0000
95 -7.0000 -4.0000
96 -5.0000 -4.0000
97 -3.0000 -4.0000
98 -1.0000 -4.0000
99 1.0000 -4.0000
100 3.0000 -4.0000
101 5.0000 -4.0000
102 7.0000 -4.0000
103 9.0000 -4.0000
104 11.0000 -4.0000
105 13.0000 -4.0000
106 -14.0000 -3.0000
107 -12.0000 -3.0000
108 -10.0000 -3.0000
109 -8.0000 -3.0000
110 -6.0000 -3.0000
111 -4.0000 -3.0000
112 -2.0000 -3.0000
113 0.0000 -3.0000
114 2.0000 -3.0000
115 4.0000 -3.0000
116 6.0000 -3.0000
117 8.0000 -3.0000
118 10.0000 -3.0000
119 12.0000 -3.0000
120 14.0000 -3.0000
121 -15.0000 -2.0000
122 -13.0000 -2.0000
123 -11.0000 -2.0000
124 -9.0000 -2.0000
125 -7.0000 -2.0000
126 -5.0000 -2.0000
127 -3.0000 -2.0000
128 -1.0000 -2.0000
129 1.0000 -2.0000
130 3.0000 -2.0000
131 5.0000 -2.0000
132 7.0000 -2.0000
133 9.0000 -2.0000
134 11.0000 -2.0000
135 13.0000 -2.0000
136 15.0000 -2.0000
137 -16.0000 -1.0000
138 -14.0000 -1.0000
139 -12.0000 -1.0000
140 -10.0000 -1.0000
141 -8.0000 -1.0000
142 -6.0000 -1.0000
143 -4.0000 -1.0000
144 -2.0000 -1.0000
145 0.0000 -1.0000
146 2.0000 -1.0000
147 4.0000 -1.0000
148 6.0000 -1.0000
149 8.0000 -1.0000
150 10.0000 -1.0000
151 12.0000 -1.0000
152 14.0000 -1.0000
153 16.0000 -1.0000
154 -17.0000 0.0000
155 -15.0000 0.0000
156 -13.0000 0.0000
157 -11.0000 0.0000
158 -9.0000 0.0000
159 -7.0000 0.0000
160 -5.0000 0.0000
161 -3.0000 0.0000
162 -1.0000 0.0000
163 1.0000 0.0000
164 3.0000 0.0000
165 5.0000 0.0000
166 7.0000 0.0000
167 9.0000 0.0000
168 11.0000 0.0000
169 13.0000 0.0000
170 15.0000 0.0000
171 17.0000 0.0000
172 -16.0000 1.0000
173 -14.0000 1.0000
174 -12.0000 1.0000
175 -10.0000 1.0000
176 -8.0000 1.0000
177 -6.0000 1.0000
178 -4.0000 1.0000
179 -2.0000 1.0000
180 0.0000 1.0000
181 2.0000 1.0000
182 4.0000 1.0000
183 6.0000 1.0000
184 8.0000 1.0000
185 10.0000 1.0000
186 12.0000 1.0000
187 14.0000 1.0000
188 16.0000 1.0000
189 -15.0000 2.0000
190 -13.0000 2.0000
191 -11.0000 2.0000
192 -9.0000 2.0000
193 -7.0000 2.0000
194 -5.0000 2.0000
195 -3.0000 2.0000
196 -1.0000 2.0000
197 1.0000 2.0000
198 3.0000 2.0000
199 5.0000 2.0000
200 7.0000 2.0000
201 9.0000 2.0000
202 11.0000 2.0000
203 13.0000 2.0000
204 15.0000 2.0000
205 -14.0000 3.0000
206 -12.0000 3.0000
207 -10.0000 3.0000
208 -8.0000 3.0000
209 -6.0000 3.0000
210 -4.0000 3.0000
211 -2.0000 3.0000
212 0.0000 3.0000
213 2.0000 3.0000
214 4.0000 3.0000
215 6.0000 3.0000
216 8.0000 3.0000
217 10.0000 3.0000
218 12.0000 3.0000
219 14.0000 3.0000
220 -13.0000 4.0000
221 -11.0000 4.0000
222 -9.0000 4.0000
223 -7.0000 4.0000
224 -5.0000 4.0000
225 -3.0000 4.0000
226 -1.0000 4.0000
227 1.0000 4.0000
228 3.0000 4.0000
229 5.0000 4.0000
230 7.0000 4.0000
231 9.0000 4.0000
232 11.0000 4.0000
233 13.0000 4.0000
234 -12.0000 5.0000
235 -10.0000 5.0000
236 -8.0000 5.0000
237 -6.0000 5.0000
238 -4.0000 5.0000
239 -2.0000 5.0000
240 0.0000 5.0000
241 2.0000 5.0000
242 4.0000 5.0000
243 6.0000 5.0000
244 8.0000 5.0000
245 10.0000 5.0000
246 12.0000 5.0000
247 -11.0000 6.0000
248 -9.0000 6.0000
249 -7.0000 6.0000
250 -5.0000 6.0000
251 -3.0000 6.0000
252 -1.0000 6.0000
253 1.0000 6.0000
254 3.0000 6.0000
255 5.0000 6.0000
256 7.0000 6.0000
257 9.0000 6.0000
258 11.0000 6.0000
259 -10.0000 7.0000
260 -8.0000 7.0000
261 -6.0000 7.0000
262 -4.0000 7.0000
263 -2.0000 7.0000
264 0.0000 7.0000
265 2.0000 7.0000
266 4.0000 7.0000
267 6.0000 7.0000
268 8.0000 7.0000
269 10.0000 7.0000
270 -9.0000 8.0000
271 -7.0000 8.0000
272 -5.0000 8.0000
273 -3.0000 8.0000
274 -1.0000 8.0000
275 1.0000 8.0000
276 3.0000 8.0000
277 5.0000 8.0000
278 7.0000 8.0000
279 9.0000 8.0000
280 -8.0000 9.0000
281 -6.0000 9.0000
282 -4.0000 9.0000
283 -2.0000 9.0000
284 0.0000 9.0000
285 2.0000 9.0000
286 4.0000 9.0000
287 6.0000 9.0000
288 8.0000 9.0000
289 -7.0000 10.0000
290 -5.0000 10.0000
291 -3.0000 10.0000
292 -1.0000 10.0000
293 1.0000 10.0000
294 3.0000 10.0000
295 5.0000 10.0000
296 7.0000 10.0000
297 -6.0000 11.0000
298 -4.0000 11.0000
299 -2.0000 11.0000
300 0.0000 11.0000
301 2.0000 11.0000
302 4.0000 11.0000
303 6.0000 11.0000
304 -5.0000 12.0000
305 -3.0000 12.0000
306 -1.0000 12.0000
307 1.0000 12.0000
308 3.0000 12.0000
309 5.0000 12.0000
310 -4.0000 13.0000
311 -2.0000 13.0000
312 0.0000 13.0000
313 2.0000 13.0000
314 4.0000 13.0000
315 -3.0000 14.0000
316 -1.0000 14.0000
317 1.0000 14.0000
318 3.0000 14.0000
319 -2.0000 15.0000
320 0.0000 15.0000
321 2.0000 15.0000
322 -1.0000 16.0000
323 1.0000 16.0000
324 0.0000 17.0000
DEMAND_SECTION
1 0
2 300
3 300
4 180
5 300
6 180
7 128
8 180
9 180
10 128
11 100
12 128
13 180
14 128
15 100
16 81
17 100
18 128
19 128
20 100
21 81
22 69
23 81
24 100
25 128
26 100
27 81
28 69
29 60
30 69
31 81
32 100
33 100
34 81
35 69
36 60
37 52
38 60
39 69
40 81
41 100
42 81
43 69
44 60
45 52
46 47
47 52
48 60
49 69
50 81
51 81
52 69
53 60
54 52
55 47
56 42
57 47
58 52
59 60
60 69
61 81
62 69
63 60
64 52
65 47
66 42
67 39
68 42
69 47
70 52
71 60
72 69
73 69
74 60
75 52
76 47
77 42
78 39
79 36
80 39
81 42
82 47
83 52
84 60
85 69
86 60
87 52
88 47
89 42
90 39
91 36
92 33
93 36
94 39
95 42
96 47
97 52
98 60
99 60
100 52
101 47
102 42
103 39
104 36
105 33
106 31
107 33
108 36
109 39
110 42
111 47
112 52
113 60
114 52
115 47
116 42
117 39
118 36
119 33
120 31
121 29
122 31
123 33
124 36
125 39
126 42
127 47
128 52
129 52
130 47
131 42
132 39
133 36
134 33
135 31
136 29
137 27
138 29
139 31
140 33
141 36
142 39
143 42
144 47
145 52
146 47
147 42
148 39
149 36
150 33
151 31
152 29
153 27
154 25
155 27
156 29
157 31
158 33
159 36
160 39
161 42
162 47
163 47
164 42
165 39
166 36
167 33
168 31
169 29
170 27
171 25
172 25
173 27
174 29
175 31
176 33
177 36
178 39
179 42
180 47
181 42
182 39
183 36
184 33
185 31
186 29
187 27
188 25
189 25
190 27
191 29
192 31
193 33
194 36
195 39
196 42
197 42
198 39
199 36
200 33
201 31
202 29
203 27
204 25
205 25
206 27
207 29
208 31
209 33
210 36
211 39
212 42
213 39
214 36
215 33
216 31
217 29
218 27
219 25
220 25
221 27
222 29
223 31
224 33
225 36
226 39
227 39
228 36
229 33
230 31
231 29
232 27
233 25
234 25
235 27
236 29
237 31
238 33
239 36
240 39
241 36
242 33
243 31
244 29
245 27
246 25
247 25
248 27
249 29
250 31
251 33
252 36
253 36
254 33
255 31
256 29
257 27
258 25
259 25
260 27
261 29
262 31
263 33
264 36
265 33
266 31
267 29
268 27
269 25
270 25
271 27
272 29
273 31
274 33
275 33
276 31
277 29
278 27
279 25
280 25
281 27
282 29
283 31
284 33
285 31
286 29
287 27
288 25
289 25
290 27
291 29
292 31
293 31
294 29
295 27
296 25
297 25
298 27
299 29
300 31
301 29
302 27
303 25
304 25
305 27
306 29
307 29
308 27
309 25
310 25
311 27
312 29
313 27
314 25
315 25
316 27
317 27
318 25
319 25
320 27
321 25
322 25
323 25
324 25
CLUSTER_SECTION
1 57
2 2
3 3
4 4
5 5
6 6
7 1
8 7
9 8
10 9
11 10
12 1
13 11
14 9
15 12
16 10
17 10
18 13
19 14
20 12
21 12
22 15
23 15
24 13
25 14
26 16
27 17
28 17
29 15
30 15
31 18
32 19
33 16
34 16
35 17
36 20
37 21
38 21
39 18
40 18
41 19
42 17
43 22
44 20
45 20
46 21
47 21
48 23
49 19
50 24
51 25
52 22
53 20
54 20
55 26
56 21
57 21
58 23
59 23
60 24
61 24
62 22
63 22
64 27
65 26
66 26
67 28
68 28
69 23
70 23
71 29
72 25
73 25
74 25
75 27
76 26
77 26
78 26
79 28
80 28
81 30
82 30
83 29
84 29
85 31
86 31
87 27
88 27
89 27
90 32
91 32
92 28
93 28
94 28
95 30
96 29
97 29
98 31
99 31
100 33
101 27
102 32
103 32
104 32
105 34
106 35
107 35
108 30
109 30
110 30
111 36
112 36
113 37
114 33
115 33
116 38
117 32
118 32
119 32
120 34
121 35
122 35
123 35
124 30
125 39
126 36
127 36
128 37
129 33
130 33
131 33
132 38
133 34
134 34
135 34
136 34
137 35
138 35
139 35
140 39
141 39
142 36
143 36
144 37
145 37
146 37
147 38
148 38
149 38
150 34
151 34
152 34
153 40
154 41
155 35
156 35
157 41
158 39
159 39
160 39
161 42
162 42
163 43
164 43
165 38
166 38
167 44
168 40
169 40
170 40
171 40
172 41
173 41
174 41
175 45
176 39
177 39
178 42
179 42
180 43
181 43
182 43
183 44
184 44
185 44
186 40
187 40
188 40
189 41
190 41
191 41
192 45
193 45
194 42
195 42
196 42
197 43
198 43
199 46
200 44
201 44
202 44
203 40
204 40
205 41
206 41
207 45
208 45
209 45
210 47
211 47
212 48
213 46
214 46
215 46
216 44
217 44
218 49
219 40
220 41
221 45
222 45
223 45
224 47
225 47
226 47
227 48
228 46
229 46
230 46
231 49
232 49
233 49
234 45
235 50
236 50
237 47
238 47
239 47
240 48
241 48
242 46
243 51
244 49
245 49
246 49
247 50
248 50
249 50
250 52
251 48
252 48
253 48
254 48
255 51
256 49
257 49
258 49
259 50
260 50
261 50
262 52
263 52
264 53
265 51
266 51
267 51
268 51
269 49
270 50
271 50
272 52
273 52
274 52
275 53
276 51
277 51
278 51
279 51
280 50
281 52
282 52
283 52
284 53
285 53
286 53
287 54
288 54
289 52
290 55
291 53
292 53
293 53
294 53
295 54
296 54
297 55
298 55
299 55
300 55
301 54
302 54
303 54
304 55
305 55
306 55
307 54
308 54
309 54
310 55
311 55
312 56
313 56
314 54
315 55
316 56
317 56
318 56
319 56
320 56
321 56
322 56
323 56
324 56
DEPOT_SECTION
1
-1
EOF
